benchmarks/bfuzz0/195762377228725167882366111614121317861.smt2
(set-logic QF_FP)
(declare-const x0 (_ FloatingPoint 11 53))
(declare-const x1 (_ FloatingPoint 11 53))
(declare-const x2 (_ FloatingPoint 11 53))
(declare-const x3 (_ FloatingPoint 11 53))
(declare-const x4 (_ FloatingPoint 11 53))
(declare-const x5 (_ FloatingPoint 11 53))
(declare-const x6 (_ FloatingPoint 11 53))
(declare-const x7 (_ FloatingPoint 11 53))
(declare-const x8 (_ FloatingPoint 11 53))
(declare-const x9 (_ FloatingPoint 11 53))
(declare-const x10 (_ FloatingPoint 11 53))
(declare-const x11 (_ FloatingPoint 11 53))
(declare-const x12 (_ FloatingPoint 11 53))
(declare-const x13 (_ FloatingPoint 11 53))
(declare-const x14 (_ FloatingPoint 11 53))
(declare-const x15 (_ FloatingPoint 11 53))
(declare-const x16 (_ FloatingPoint 11 53))
(declare-const x17 (_ FloatingPoint 11 53))
(declare-const x18 (_ FloatingPoint 11 53))
(declare-const x19 (_ FloatingPoint 11 53))
(declare-const x20 (_ FloatingPoint 11 53))
(declare-const x21 (_ FloatingPoint 11 53))
(assert (fp.lt (fp.add RNE (fp.add RNE x20 x0) (fp.neg x15)) (fp.sub RNE (fp.mul RNE x0 x0) (fp.sub RNE x12 x2))))
(assert (fp.lt (fp.mul RNE (fp.neg x5) (fp.div RNE x14 x1)) (fp.div RNE (fp.neg x9) (fp.neg x3))))
(assert (fp.geq (fp.neg (fp.div RNE x6 x15)) (fp.sub RNE (fp.mul RNE x12 x6) (fp.neg x15))))
(assert (fp.gt (fp.div RNE (fp.sub RNE x5 x18) (fp.neg x21)) (fp.neg (fp.sub RNE x18 x1))))
(assert (fp.geq (fp.div RNE (fp.neg x11) (fp.add RNE x6 x9)) (fp.neg (fp.sub RNE x10 x19))))
(assert (fp.gt (fp.neg (fp.sub RNE x15 x17)) (fp.sub RNE (fp.add RNE x15 x19) (fp.div RNE x1 x2))))
(assert (fp.leq (fp.neg (fp.div RNE x13 x11)) (fp.mul RNE (fp.div RNE x17 x10) (fp.neg x9))))
(assert (fp.gt (fp.sub RNE (fp.sub RNE x13 x1) (fp.mul RNE x18 x6)) (fp.sub RNE (fp.sub RNE x17 x4) (fp.mul RNE x21 x8))))
(assert (fp.gt (fp.add RNE (fp.neg x14) (fp.add RNE x17 x6)) (fp.div RNE (fp.sub RNE x15 x3) (fp.sub RNE x14 x19))))
(assert (fp.geq (fp.div RNE (fp.div RNE x19 x14) (fp.mul RNE x13 x2)) (fp.div RNE (fp.div RNE x20 x5) (fp.div RNE x16 x20))))
(assert (fp.leq (fp.add RNE (fp.sub RNE x12 x6) (fp.add RNE x2 x20)) (fp.sub RNE (fp.sub RNE x3 x8) (fp.sub RNE x19 x2))))
(check-sat)
