db/data/195762377228725167882366111614121317861.z3.out
-------------------
2500.200440016
